benchmark/results/graph__10-1000-0.10-02_13/graph__10-1000-0.10-02_13_Quinton_Benders_aux.lp
\ This file has been generated by DOcplex
\ ENCODING=ISO-8859-1
\Problem name: Quinton Benders_auxiliary_sub

Minimize
 obj: 0.000839631698 pi_nr_a0 + 0.000962295109 pi_nr_a1
      + 0.000793650794 pi_nr_a2 + 0.001227557284 pi_nr_a3
      + 0.001298420588 pi_nr_a4 + 0.005479805041 pi_nr_a5
      + 0.001074367180 pi_nr_a6 + 0.001048218029 pi_nr_a7
      + 0.000871058167 pi_nr_a8 + 0.000773993808 pi_nr_a9 + pi_p_a1_a0
      + pi_p_a3_a0 + pi_p_a1_a4 + pi_p_a3_a9 + pi_p_a7_a8 + pi_p_a4_a8
      + pi_p_a7_a6 + 0.004814612065 pi_d_a0_a1_proc_1
      + 969.039622756839 pi_d_a0_a1_proc_0 + 1615.960377243161 pi_d_a1_a0_proc_1
      + 2584.995185387935 pi_d_a1_a0_proc_0
      + 1332.375003814697 pi_d_a0_a2_proc_0
      + 1252.620067619919 pi_d_a2_a0_proc_0
      + 1372.370544433566 pi_d_a0_a3_proc_1
      + 2583.615615868217 pi_d_a0_a3_proc_0 + 1.384384131783 pi_d_a3_a0_proc_1
      + 1212.629455566434 pi_d_a3_a0_proc_0 + 969.044357276322 pi_d_a0_a4_proc_1
      + 2583.999999999995 pi_d_a0_a4_proc_0 + 1.000000000005 pi_d_a4_a0_proc_1
      + 1615.955642723678 pi_d_a4_a0_proc_0 + 0.000000365562 pi_d_a0_a5_proc_1
      + 322.995071799021 pi_d_a0_a5_proc_0 + 2262.004928200979 pi_d_a5_a0_proc_1
      + 2584.999999634438 pi_d_a5_a0_proc_0
      + 1534.294357238909 pi_d_a0_a6_proc_1
      + 2583.999999962553 pi_d_a0_a6_proc_0 + 1.000000037447 pi_d_a6_a0_proc_1
      + 1050.705642761091 pi_d_a6_a0_proc_0
      + 2402.307571412253 pi_d_a0_a7_proc_0 + 182.687500022363 pi_d_a7_a0_proc_0
      + 969.910201652474 pi_d_a0_a8_proc_1 + 2584.904965083171 pi_d_a0_a8_proc_0
      + 0.095034916829 pi_d_a8_a0_proc_1 + 1615.089798347526 pi_d_a8_a0_proc_0
      + 813.024032597609 pi_d_a0_a9_proc_0 + 1771.971038837007 pi_d_a9_a0_proc_0
      + 890.039519377405 pi_d_a1_a2_proc_0 + 80.000217332753 pi_d_a2_a1_proc_0
      + 1615.931028023148 pi_d_a1_a3_proc_1
      + 1212.220764733341 pi_d_a1_a3_proc_0
      + 1372.779235266659 pi_d_a3_a1_proc_1 + 969.068971976852 pi_d_a3_a1_proc_0
      + 2584.998444594703 pi_d_a1_a4_proc_1
      + 2584.998752593919 pi_d_a1_a4_proc_0 + 0.001247406082 pi_d_a4_a1_proc_1
      + 0.001555405297 pi_d_a4_a1_proc_0 + 2584.960263289842 pi_d_a1_a5_proc_1
      + 1292.999999998843 pi_d_a1_a5_proc_0
      + 1292.000000001157 pi_d_a5_a1_proc_1 + 0.039736710158 pi_d_a5_a1_proc_0
      + 1613.448102034211 pi_d_a1_a6_proc_1
      + 1048.198410033397 pi_d_a1_a6_proc_0
      + 1536.801589966603 pi_d_a6_a1_proc_1 + 971.551897965789 pi_d_a6_a1_proc_0
      + 1.000019454982 pi_d_a1_a7_proc_0 + 969.039717255176 pi_d_a7_a1_proc_0
      + 1717.991375370388 pi_d_a1_a8_proc_1
      + 1718.030804076628 pi_d_a1_a8_proc_0 + 866.969195923372 pi_d_a8_a1_proc_1
      + 867.008624629612 pi_d_a8_a1_proc_0 + 970.539654240845 pi_d_a1_a9_proc_0
      - 0.499917530687 pi_d_a9_a1_proc_0 + 1211.250000000000 pi_d_a2_a3_proc_0
      + 1.000000000034 pi_d_a3_a2_proc_0 + 1541.833210759229 pi_d_a2_a4_proc_0
      + 74.127360529829 pi_d_a4_a2_proc_0 + 206.002894556787 pi_d_a2_a5_proc_0
      + 117.997105442056 pi_d_a5_a2_proc_0 + 867.652700203335 pi_d_a2_a6_proc_0
      + 183.057871085693 pi_d_a6_a2_proc_0 + pi_d_a7_a2_proc_0
      + 1615.994763407214 pi_d_a2_a8_proc_0 + 0.004928588867 pi_d_a8_a2_proc_0
      + pi_d_a2_a9_proc_0 + 2342.749999998568 pi_d_a3_a4_proc_1
      + 2584.960571287661 pi_d_a3_a4_proc_0 + 0.039428712339 pi_d_a4_a3_proc_1
      + 242.250000001432 pi_d_a4_a3_proc_0 + 2342.749999999984 pi_d_a3_a5_proc_1
      + 1292.999999998862 pi_d_a3_a5_proc_0
      + 1292.000000001138 pi_d_a5_a3_proc_1 + 242.250000000016 pi_d_a5_a3_proc_0
      + 1615.999384252932 pi_d_a3_a6_proc_1
      + 1292.959955541995 pi_d_a3_a6_proc_0
      + 1292.040044458005 pi_d_a6_a3_proc_1 + 969.000615747068 pi_d_a6_a3_proc_0
      + 1050.312500000032 pi_d_a3_a7_proc_0 + 161.937500000002 pi_d_a7_a3_proc_0
      + 2000.248738394210 pi_d_a3_a8_proc_1
      + 2242.498430390327 pi_d_a3_a8_proc_0 + 342.501569609674 pi_d_a8_a3_proc_1
      + 584.751261605790 pi_d_a8_a3_proc_0 + 1212.250000000032 pi_d_a3_a9_proc_0
      + 0.000000000002 pi_d_a9_a3_proc_0 + 2262.039428712098 pi_d_a4_a5_proc_1
      + 1616.000000000000 pi_d_a4_a5_proc_0 + 969.000000000000 pi_d_a5_a4_proc_1
      + 322.960571287902 pi_d_a5_a4_proc_0 + 2503.289428710972 pi_d_a4_a6_proc_1
      + 2583.960571289058 pi_d_a4_a6_proc_0 + 1.039428710942 pi_d_a6_a4_proc_1
      + 81.710571289028 pi_d_a6_a4_proc_0 + 166.559386593097 pi_d_a4_a7_proc_0
      + 1449.401184695961 pi_d_a7_a4_proc_0 + 970.039728893493 pi_d_a4_a8_proc_1
      + 1615.999992178632 pi_d_a4_a8_proc_0 + 969.000007821368 pi_d_a8_a4_proc_1
      + 1614.960271106508 pi_d_a8_a4_proc_0
      + 1530.074952622949 pi_d_a4_a9_proc_0 + 85.885618666109 pi_d_a9_a4_proc_0
      + 2319.789428712110 pi_d_a5_a6_proc_1
      + 1108.499999999982 pi_d_a5_a6_proc_0
      + 1476.500000000018 pi_d_a6_a5_proc_1 + 265.210571287890 pi_d_a6_a5_proc_0
      + 318.108062674779 pi_d_a5_a7_proc_0 + 5.891937324064 pi_d_a7_a5_proc_0
      + 2262.000307608540 pi_d_a5_a8_proc_1
      + 1615.999999603465 pi_d_a5_a8_proc_0 + 969.000000396535 pi_d_a8_a5_proc_1
      + 322.999692391460 pi_d_a8_a5_proc_0 + 55.024036443258 pi_d_a5_a9_proc_0
      + 268.975963555585 pi_d_a9_a5_proc_0 + 691.895621840528 pi_d_a6_a7_proc_0
      + 358.814949448500 pi_d_a7_a6_proc_0 + 341.375060062524 pi_d_a6_a8_proc_1
      + 422.085323347633 pi_d_a6_a8_proc_0 + 2162.914676652366 pi_d_a8_a6_proc_1
      + 2243.624939937476 pi_d_a8_a6_proc_0 + 911.710561362061 pi_d_a6_a9_proc_0
      + 139.000009926967 pi_d_a9_a6_proc_0 + 1615.998460802539 pi_d_a7_a8_proc_0
      + 0.001231193542 pi_d_a8_a7_proc_0 + pi_d_a7_a9_proc_0
      + 1614.999538096889 pi_d_a8_a9_proc_0 + 1.000153899193 pi_d_a9_a8_proc_0
      + 0.000001907340 pi_y2_a0_proc_0 + 0.999998092660 pi_y2_a0_proc_1
      + 0.624984622016 pi_y2_a1_proc_0 + 0.375015377984 pi_y2_a1_proc_1
      + pi_y2_a2_proc_0 + 0.531250000000 pi_y2_a3_proc_0
      + 0.468750000000 pi_y2_a3_proc_1 + 0.375015258789 pi_y2_a4_proc_0
      + 0.624984741211 pi_y2_a4_proc_1 + 0.875000000000 pi_y2_a5_proc_0
      + 0.125000000000 pi_y2_a5_proc_1 + 0.593765258789 pi_y2_a6_proc_0
      + 0.406234741211 pi_y2_a6_proc_1 + pi_y2_a7_proc_0
      + 0.375000119197 pi_y2_a8_proc_0 + 0.624999880803 pi_y2_a8_proc_1
      + pi_y2_a9_proc_0
Subject To
 c1: 0.000839630563 pi_nr_a0 + 0.001060445387 pi_nr_a1 + 0.000793650794 pi_nr_a2
     + 0.001472754050 pi_nr_a3 + 0.001074113856 pi_nr_a4
     + 0.006134969325 pi_nr_a5 + 0.001086956522 pi_nr_a6
     + 0.001048218029 pi_nr_a7 + 0.000914076782 pi_nr_a8
     + 0.000773993808 pi_nr_a9 + pi_p_a1_a0 + pi_p_a3_a0 + pi_p_a1_a4
     + pi_p_a3_a9 + pi_p_a7_a8 + pi_p_a4_a8 + pi_p_a7_a6
     + 2585 pi_d_a1_a0_proc_1 + 2585 pi_d_a1_a0_proc_0 + 2584 pi_d_a0_a2_proc_0
     + pi_d_a2_a0_proc_0 + 2584 pi_d_a0_a3_proc_1 + 2584 pi_d_a0_a3_proc_0
     + pi_d_a3_a0_proc_1 + pi_d_a3_a0_proc_0 + 2584 pi_d_a0_a4_proc_0
     + pi_d_a4_a0_proc_1 + 2585 pi_d_a4_a0_proc_0 + 2585 pi_d_a5_a0_proc_1
     + 2585 pi_d_a5_a0_proc_0 + 2584 pi_d_a0_a6_proc_1 + 2584 pi_d_a0_a6_proc_0
     + pi_d_a6_a0_proc_1 + pi_d_a6_a0_proc_0 + 2584 pi_d_a0_a7_proc_0
     + pi_d_a7_a0_proc_0 + pi_d_a0_a8_proc_1 + 2585 pi_d_a0_a8_proc_0
     + 2584 pi_d_a8_a0_proc_0 + pi_d_a0_a9_proc_0 + 2584 pi_d_a9_a0_proc_0
     + 2 pi_d_a1_a2_proc_0 - pi_d_a2_a1_proc_0 + 2585 pi_d_a1_a3_proc_1
     + pi_d_a1_a3_proc_0 + 2584 pi_d_a3_a1_proc_1 + 2585 pi_d_a1_a4_proc_1
     + 2585 pi_d_a1_a4_proc_0 + 2585 pi_d_a1_a5_proc_1 + pi_d_a1_a5_proc_0
     + 2584 pi_d_a5_a1_proc_1 + 2585 pi_d_a1_a6_proc_1 + pi_d_a1_a6_proc_0
     + 2584 pi_d_a6_a1_proc_1 + pi_d_a1_a7_proc_0 + 2586 pi_d_a1_a8_proc_1
     + 2586 pi_d_a1_a8_proc_0 - pi_d_a8_a1_proc_1 - pi_d_a8_a1_proc_0
     + 2 pi_d_a1_a9_proc_0 - pi_d_a9_a1_proc_0 + pi_d_a3_a2_proc_0
     + 2584 pi_d_a2_a4_proc_0 + pi_d_a4_a2_proc_0 + pi_d_a5_a2_proc_0
     + pi_d_a6_a2_proc_0 + pi_d_a7_a2_proc_0 + 2585 pi_d_a2_a8_proc_0
     + pi_d_a2_a9_proc_0 + 2585 pi_d_a3_a4_proc_1 + 2585 pi_d_a3_a4_proc_0
     + 2585 pi_d_a3_a5_proc_1 + pi_d_a3_a5_proc_0 + 2584 pi_d_a5_a3_proc_1
     + 2585 pi_d_a3_a6_proc_1 + pi_d_a3_a6_proc_0 + 2584 pi_d_a6_a3_proc_1
     + pi_d_a3_a7_proc_0 + 2586 pi_d_a3_a8_proc_1 + 2586 pi_d_a3_a8_proc_0
     - pi_d_a8_a3_proc_1 - pi_d_a8_a3_proc_0 + pi_d_a3_a9_proc_0
     + 2585 pi_d_a4_a5_proc_1 + 2585 pi_d_a4_a5_proc_0 + 2584 pi_d_a4_a6_proc_1
     + 2584 pi_d_a4_a6_proc_0 + pi_d_a6_a4_proc_1 + pi_d_a6_a4_proc_0
     + 2585 pi_d_a7_a4_proc_0 + pi_d_a4_a8_proc_1 + 2585 pi_d_a4_a8_proc_0
     + 2584 pi_d_a8_a4_proc_0 + 2585 pi_d_a4_a9_proc_0 + 2584 pi_d_a5_a6_proc_1
     + 2585 pi_d_a6_a5_proc_1 + pi_d_a6_a5_proc_0 + pi_d_a7_a5_proc_0
     + 2585 pi_d_a5_a8_proc_1 + 2585 pi_d_a5_a8_proc_0 + pi_d_a5_a9_proc_0
     + pi_d_a6_a7_proc_0 + pi_d_a6_a8_proc_1 + pi_d_a6_a8_proc_0
     + 2584 pi_d_a8_a6_proc_1 + 2584 pi_d_a8_a6_proc_0 + pi_d_a6_a9_proc_0
     + 2585 pi_d_a7_a8_proc_0 + pi_d_a7_a9_proc_0 + 2584 pi_d_a8_a9_proc_0
     + pi_d_a9_a8_proc_0 + pi_y2_a0_proc_1 + pi_y2_a1_proc_0 + pi_y2_a2_proc_0
     + pi_y2_a3_proc_0 + pi_y2_a4_proc_1 + pi_y2_a5_proc_0 + pi_y2_a6_proc_0
     + pi_y2_a7_proc_0 + pi_y2_a8_proc_1 + pi_y2_a9_proc_0 = 0.000117702448
 c2: pi_nr_a0 + pi_nr_a1 + pi_nr_a2 + pi_nr_a3 + pi_nr_a4 + pi_nr_a5 + pi_nr_a6
     + pi_nr_a7 + pi_nr_a8 + pi_nr_a9 - pi_y1_a0 - pi_y1_a1 - pi_y1_a2
     - pi_y1_a3 - pi_y1_a4 - pi_y1_a5 - pi_y1_a6 - pi_y1_a7 - pi_y1_a8
     - pi_y1_a9 >= 1
 c3: - pi_p_a1_a0 - pi_p_a3_a0 + pi_p_a0_a5 + pi_d_a0_a1_proc_1
     + pi_d_a0_a1_proc_0 - pi_d_a1_a0_proc_1 - pi_d_a1_a0_proc_0
     + pi_d_a0_a2_proc_0 - pi_d_a2_a0_proc_0 + pi_d_a0_a3_proc_1
     + pi_d_a0_a3_proc_0 - pi_d_a3_a0_proc_1 - pi_d_a3_a0_proc_0
     + pi_d_a0_a4_proc_1 + pi_d_a0_a4_proc_0 - pi_d_a4_a0_proc_1
     - pi_d_a4_a0_proc_0 + pi_d_a0_a5_proc_1 + pi_d_a0_a5_proc_0
     - pi_d_a5_a0_proc_1 - pi_d_a5_a0_proc_0 + pi_d_a0_a6_proc_1
     + pi_d_a0_a6_proc_0 - pi_d_a6_a0_proc_1 - pi_d_a6_a0_proc_0
     + pi_d_a0_a7_proc_0 - pi_d_a7_a0_proc_0 + pi_d_a0_a8_proc_1
     + pi_d_a0_a8_proc_0 - pi_d_a8_a0_proc_1 - pi_d_a8_a0_proc_0
     + pi_d_a0_a9_proc_0 - pi_d_a9_a0_proc_0 >= 0
 c4: 697 pi_p_a0_a5 + 697 pi_d_a0_a1_proc_0 + 697 pi_d_a0_a2_proc_0
     + 697 pi_d_a0_a3_proc_0 + 697 pi_d_a0_a4_proc_0 + 697 pi_d_a0_a5_proc_0
     + 697 pi_d_a0_a6_proc_0 + 697 pi_d_a0_a7_proc_0 + 697 pi_d_a0_a8_proc_0
     + 697 pi_d_a0_a9_proc_0 + pi_y1_a0 + pi_y2_a0_proc_0 >= 0
 c5: 1191 pi_p_a0_a5 + 1191 pi_d_a0_a1_proc_1 + 1191 pi_d_a0_a3_proc_1
     + 1191 pi_d_a0_a4_proc_1 + 1191 pi_d_a0_a5_proc_1 + 1191 pi_d_a0_a6_proc_1
     + 1191 pi_d_a0_a8_proc_1 + pi_y1_a0 + pi_y2_a0_proc_1 >= 0
 c6: pi_p_a1_a0 - pi_p_a2_a1 + pi_p_a1_a4 - pi_d_a0_a1_proc_1
     - pi_d_a0_a1_proc_0 + pi_d_a1_a0_proc_1 + pi_d_a1_a0_proc_0
     + pi_d_a1_a2_proc_0 - pi_d_a2_a1_proc_0 + pi_d_a1_a3_proc_1
     + pi_d_a1_a3_proc_0 - pi_d_a3_a1_proc_1 - pi_d_a3_a1_proc_0
     + pi_d_a1_a4_proc_1 + pi_d_a1_a4_proc_0 - pi_d_a4_a1_proc_1
     - pi_d_a4_a1_proc_0 + pi_d_a1_a5_proc_1 + pi_d_a1_a5_proc_0
     - pi_d_a5_a1_proc_1 - pi_d_a5_a1_proc_0 + pi_d_a1_a6_proc_1
     + pi_d_a1_a6_proc_0 - pi_d_a6_a1_proc_1 - pi_d_a6_a1_proc_0
     + pi_d_a1_a7_proc_0 - pi_d_a7_a1_proc_0 + pi_d_a1_a8_proc_1
     + pi_d_a1_a8_proc_0 - pi_d_a8_a1_proc_1 - pi_d_a8_a1_proc_0
     + pi_d_a1_a9_proc_0 - pi_d_a9_a1_proc_0 >= 0
 c7: 943 pi_p_a1_a0 + 943 pi_p_a1_a4 + 943 pi_d_a1_a0_proc_0
     + 943 pi_d_a1_a2_proc_0 + 943 pi_d_a1_a3_proc_0 + 943 pi_d_a1_a4_proc_0
     + 943 pi_d_a1_a5_proc_0 + 943 pi_d_a1_a6_proc_0 + 943 pi_d_a1_a7_proc_0
     + 943 pi_d_a1_a8_proc_0 + 943 pi_d_a1_a9_proc_0 + pi_y1_a1
     + pi_y2_a1_proc_0 >= 0
 c8: 1252 pi_p_a1_a0 + 1252 pi_p_a1_a4 + 1252 pi_d_a1_a0_proc_1
     + 1252 pi_d_a1_a3_proc_1 + 1252 pi_d_a1_a4_proc_1 + 1252 pi_d_a1_a5_proc_1
     + 1252 pi_d_a1_a6_proc_1 + 1252 pi_d_a1_a8_proc_1 + pi_y1_a1
     + pi_y2_a1_proc_1 >= 0
 c9: pi_p_a2_a1 + pi_p_a2_a7 - pi_p_a9_a2 - pi_d_a0_a2_proc_0
     + pi_d_a2_a0_proc_0 - pi_d_a1_a2_proc_0 + pi_d_a2_a1_proc_0
     + pi_d_a2_a3_proc_0 - pi_d_a3_a2_proc_0 + pi_d_a2_a4_proc_0
     - pi_d_a4_a2_proc_0 + pi_d_a2_a5_proc_0 - pi_d_a5_a2_proc_0
     + pi_d_a2_a6_proc_0 - pi_d_a6_a2_proc_0 + pi_d_a2_a7_proc_0
     - pi_d_a7_a2_proc_0 + pi_d_a2_a8_proc_0 - pi_d_a8_a2_proc_0
     + pi_d_a2_a9_proc_0 - pi_d_a9_a2_proc_0 >= 0
 c10: 1260 pi_p_a2_a1 + 1260 pi_p_a2_a7 + 1260 pi_d_a2_a0_proc_0
      + 1260 pi_d_a2_a1_proc_0 + 1260 pi_d_a2_a3_proc_0 + 1260 pi_d_a2_a4_proc_0
      + 1260 pi_d_a2_a5_proc_0 + 1260 pi_d_a2_a6_proc_0 + 1260 pi_d_a2_a7_proc_0
      + 1260 pi_d_a2_a8_proc_0 + 1260 pi_d_a2_a9_proc_0 + pi_y1_a2
      + pi_y2_a2_proc_0 >= 0
 c11: pi_p_a3_a0 - pi_p_a6_a3 - pi_p_a8_a3 + pi_p_a3_a9 - pi_d_a0_a3_proc_1
      - pi_d_a0_a3_proc_0 + pi_d_a3_a0_proc_1 + pi_d_a3_a0_proc_0
      - pi_d_a1_a3_proc_1 - pi_d_a1_a3_proc_0 + pi_d_a3_a1_proc_1
      + pi_d_a3_a1_proc_0 - pi_d_a2_a3_proc_0 + pi_d_a3_a2_proc_0
      + pi_d_a3_a4_proc_1 + pi_d_a3_a4_proc_0 - pi_d_a4_a3_proc_1
      - pi_d_a4_a3_proc_0 + pi_d_a3_a5_proc_1 + pi_d_a3_a5_proc_0
      - pi_d_a5_a3_proc_1 - pi_d_a5_a3_proc_0 + pi_d_a3_a6_proc_1
      + pi_d_a3_a6_proc_0 - pi_d_a6_a3_proc_1 - pi_d_a6_a3_proc_0
      + pi_d_a3_a7_proc_0 - pi_d_a7_a3_proc_0 + pi_d_a3_a8_proc_1
      + pi_d_a3_a8_proc_0 - pi_d_a8_a3_proc_1 - pi_d_a8_a3_proc_0
      + pi_d_a3_a9_proc_0 - pi_d_a9_a3_proc_0 >= 0
 c12: 679 pi_p_a3_a0 + 679 pi_p_a3_a9 + 679 pi_d_a3_a0_proc_0
      + 679 pi_d_a3_a1_proc_0 + 679 pi_d_a3_a2_proc_0 + 679 pi_d_a3_a4_proc_0
      + 679 pi_d_a3_a5_proc_0 + 679 pi_d_a3_a6_proc_0 + 679 pi_d_a3_a7_proc_0
      + 679 pi_d_a3_a8_proc_0 + 679 pi_d_a3_a9_proc_0 + pi_y1_a3
      + pi_y2_a3_proc_0 >= 0
 c13: 1053 pi_p_a3_a0 + 1053 pi_p_a3_a9 + 1053 pi_d_a3_a0_proc_1
      + 1053 pi_d_a3_a1_proc_1 + 1053 pi_d_a3_a4_proc_1 + 1053 pi_d_a3_a5_proc_1
      + 1053 pi_d_a3_a6_proc_1 + 1053 pi_d_a3_a8_proc_1 + pi_y1_a3
      + pi_y2_a3_proc_1 >= 0
 c14: - pi_p_a1_a4 - pi_p_a5_a4 - pi_p_a9_a4 + pi_p_a4_a8 + pi_p_a4_a6
      - pi_d_a0_a4_proc_1 - pi_d_a0_a4_proc_0 + pi_d_a4_a0_proc_1
      + pi_d_a4_a0_proc_0 - pi_d_a1_a4_proc_1 - pi_d_a1_a4_proc_0
      + pi_d_a4_a1_proc_1 + pi_d_a4_a1_proc_0 - pi_d_a2_a4_proc_0
      + pi_d_a4_a2_proc_0 - pi_d_a3_a4_proc_1 - pi_d_a3_a4_proc_0
      + pi_d_a4_a3_proc_1 + pi_d_a4_a3_proc_0 + pi_d_a4_a5_proc_1
      + pi_d_a4_a5_proc_0 - pi_d_a5_a4_proc_1 - pi_d_a5_a4_proc_0
      + pi_d_a4_a6_proc_1 + pi_d_a4_a6_proc_0 - pi_d_a6_a4_proc_1
      - pi_d_a6_a4_proc_0 + pi_d_a4_a7_proc_0 - pi_d_a7_a4_proc_0
      + pi_d_a4_a8_proc_1 + pi_d_a4_a8_proc_0 - pi_d_a8_a4_proc_1
      - pi_d_a8_a4_proc_0 + pi_d_a4_a9_proc_0 - pi_d_a9_a4_proc_0 >= 0
 c15: 598 pi_p_a4_a8 + 598 pi_p_a4_a6 + 598 pi_d_a4_a0_proc_0
      + 598 pi_d_a4_a1_proc_0 + 598 pi_d_a4_a2_proc_0 + 598 pi_d_a4_a3_proc_0
      + 598 pi_d_a4_a5_proc_0 + 598 pi_d_a4_a6_proc_0 + 598 pi_d_a4_a7_proc_0
      + 598 pi_d_a4_a8_proc_0 + 598 pi_d_a4_a9_proc_0 + pi_y1_a4
      + pi_y2_a4_proc_0 >= 0
 c16: 931 pi_p_a4_a8 + 931 pi_p_a4_a6 + 931 pi_d_a4_a0_proc_1
      + 931 pi_d_a4_a1_proc_1 + 931 pi_d_a4_a3_proc_1 + 931 pi_d_a4_a5_proc_1
      + 931 pi_d_a4_a6_proc_1 + 931 pi_d_a4_a8_proc_1 + pi_y1_a4
      + pi_y2_a4_proc_1 >= 0
 c17: pi_p_a5_a4 - pi_p_a0_a5 - pi_d_a0_a5_proc_1 - pi_d_a0_a5_proc_0
      + pi_d_a5_a0_proc_1 + pi_d_a5_a0_proc_0 - pi_d_a1_a5_proc_1
      - pi_d_a1_a5_proc_0 + pi_d_a5_a1_proc_1 + pi_d_a5_a1_proc_0
      - pi_d_a2_a5_proc_0 + pi_d_a5_a2_proc_0 - pi_d_a3_a5_proc_1
      - pi_d_a3_a5_proc_0 + pi_d_a5_a3_proc_1 + pi_d_a5_a3_proc_0
      - pi_d_a4_a5_proc_1 - pi_d_a4_a5_proc_0 + pi_d_a5_a4_proc_1
      + pi_d_a5_a4_proc_0 + pi_d_a5_a6_proc_1 + pi_d_a5_a6_proc_0
      - pi_d_a6_a5_proc_1 - pi_d_a6_a5_proc_0 + pi_d_a5_a7_proc_0
      - pi_d_a7_a5_proc_0 + pi_d_a5_a8_proc_1 + pi_d_a5_a8_proc_0
      - pi_d_a8_a5_proc_1 - pi_d_a8_a5_proc_0 + pi_d_a5_a9_proc_0
      - pi_d_a9_a5_proc_0 >= 0
 c18: 163 pi_p_a5_a4 + 163 pi_d_a5_a0_proc_0 + 163 pi_d_a5_a1_proc_0
      + 163 pi_d_a5_a2_proc_0 + 163 pi_d_a5_a3_proc_0 + 163 pi_d_a5_a4_proc_0
      + 163 pi_d_a5_a6_proc_0 + 163 pi_d_a5_a7_proc_0 + 163 pi_d_a5_a8_proc_0
      + 163 pi_d_a5_a9_proc_0 + pi_y1_a5 + pi_y2_a5_proc_0 >= 0
 c19: 1119 pi_p_a5_a4 + 1119 pi_d_a5_a0_proc_1 + 1119 pi_d_a5_a1_proc_1
      + 1119 pi_d_a5_a3_proc_1 + 1119 pi_d_a5_a4_proc_1 + 1119 pi_d_a5_a6_proc_1
      + 1119 pi_d_a5_a8_proc_1 + pi_y1_a5 + pi_y2_a5_proc_1 >= 0
 c20: pi_p_a6_a3 - pi_p_a7_a6 - pi_p_a4_a6 - pi_d_a0_a6_proc_1
      - pi_d_a0_a6_proc_0 + pi_d_a6_a0_proc_1 + pi_d_a6_a0_proc_0
      - pi_d_a1_a6_proc_1 - pi_d_a1_a6_proc_0 + pi_d_a6_a1_proc_1
      + pi_d_a6_a1_proc_0 - pi_d_a2_a6_proc_0 + pi_d_a6_a2_proc_0
      - pi_d_a3_a6_proc_1 - pi_d_a3_a6_proc_0 + pi_d_a6_a3_proc_1
      + pi_d_a6_a3_proc_0 - pi_d_a4_a6_proc_1 - pi_d_a4_a6_proc_0
      + pi_d_a6_a4_proc_1 + pi_d_a6_a4_proc_0 - pi_d_a5_a6_proc_1
      - pi_d_a5_a6_proc_0 + pi_d_a6_a5_proc_1 + pi_d_a6_a5_proc_0
      + pi_d_a6_a7_proc_0 - pi_d_a7_a6_proc_0 + pi_d_a6_a8_proc_1
      + pi_d_a6_a8_proc_0 - pi_d_a8_a6_proc_1 - pi_d_a8_a6_proc_0
      + pi_d_a6_a9_proc_0 - pi_d_a9_a6_proc_0 >= 0
 c21: 920 pi_p_a6_a3 + 920 pi_d_a6_a0_proc_0 + 920 pi_d_a6_a1_proc_0
      + 920 pi_d_a6_a2_proc_0 + 920 pi_d_a6_a3_proc_0 + 920 pi_d_a6_a4_proc_0
      + 920 pi_d_a6_a5_proc_0 + 920 pi_d_a6_a7_proc_0 + 920 pi_d_a6_a8_proc_0
      + 920 pi_d_a6_a9_proc_0 + pi_y1_a6 + pi_y2_a6_proc_0 >= 0
 c22: 947 pi_p_a6_a3 + 947 pi_d_a6_a0_proc_1 + 947 pi_d_a6_a1_proc_1
      + 947 pi_d_a6_a3_proc_1 + 947 pi_d_a6_a4_proc_1 + 947 pi_d_a6_a5_proc_1
      + 947 pi_d_a6_a8_proc_1 + pi_y1_a6 + pi_y2_a6_proc_1 >= 0
 c23: - pi_p_a2_a7 + pi_p_a7_a8 + pi_p_a7_a6 - pi_d_a0_a7_proc_0
      + pi_d_a7_a0_proc_0 - pi_d_a1_a7_proc_0 + pi_d_a7_a1_proc_0
      - pi_d_a2_a7_proc_0 + pi_d_a7_a2_proc_0 - pi_d_a3_a7_proc_0
      + pi_d_a7_a3_proc_0 - pi_d_a4_a7_proc_0 + pi_d_a7_a4_proc_0
      - pi_d_a5_a7_proc_0 + pi_d_a7_a5_proc_0 - pi_d_a6_a7_proc_0
      + pi_d_a7_a6_proc_0 + pi_d_a7_a8_proc_0 - pi_d_a8_a7_proc_0
      + pi_d_a7_a9_proc_0 - pi_d_a9_a7_proc_0 >= 0
 c24: 954 pi_p_a7_a8 + 954 pi_p_a7_a6 + 954 pi_d_a7_a0_proc_0
      + 954 pi_d_a7_a1_proc_0 + 954 pi_d_a7_a2_proc_0 + 954 pi_d_a7_a3_proc_0
      + 954 pi_d_a7_a4_proc_0 + 954 pi_d_a7_a5_proc_0 + 954 pi_d_a7_a6_proc_0
      + 954 pi_d_a7_a8_proc_0 + 954 pi_d_a7_a9_proc_0 + pi_y1_a7
      + pi_y2_a7_proc_0 >= 0
 c25: pi_p_a8_a3 - pi_p_a7_a8 - pi_p_a4_a8 + pi_p_a8_a9 - pi_d_a0_a8_proc_1
      - pi_d_a0_a8_proc_0 + pi_d_a8_a0_proc_1 + pi_d_a8_a0_proc_0
      - pi_d_a1_a8_proc_1 - pi_d_a1_a8_proc_0 + pi_d_a8_a1_proc_1
      + pi_d_a8_a1_proc_0 - pi_d_a2_a8_proc_0 + pi_d_a8_a2_proc_0
      - pi_d_a3_a8_proc_1 - pi_d_a3_a8_proc_0 + pi_d_a8_a3_proc_1
      + pi_d_a8_a3_proc_0 - pi_d_a4_a8_proc_1 - pi_d_a4_a8_proc_0
      + pi_d_a8_a4_proc_1 + pi_d_a8_a4_proc_0 - pi_d_a5_a8_proc_1
      - pi_d_a5_a8_proc_0 + pi_d_a8_a5_proc_1 + pi_d_a8_a5_proc_0
      - pi_d_a6_a8_proc_1 - pi_d_a6_a8_proc_0 + pi_d_a8_a6_proc_1
      + pi_d_a8_a6_proc_0 - pi_d_a7_a8_proc_0 + pi_d_a8_a7_proc_0
      + pi_d_a8_a9_proc_0 - pi_d_a9_a8_proc_0 >= 0
 c26: 1251 pi_p_a8_a3 + 1251 pi_p_a8_a9 + 1251 pi_d_a8_a0_proc_0
      + 1251 pi_d_a8_a1_proc_0 + 1251 pi_d_a8_a2_proc_0 + 1251 pi_d_a8_a3_proc_0
      + 1251 pi_d_a8_a4_proc_0 + 1251 pi_d_a8_a5_proc_0 + 1251 pi_d_a8_a6_proc_0
      + 1251 pi_d_a8_a7_proc_0 + 1251 pi_d_a8_a9_proc_0 + pi_y1_a8
      + pi_y2_a8_proc_0 >= 0
 c27: 1094 pi_p_a8_a3 + 1094 pi_p_a8_a9 + 1094 pi_d_a8_a0_proc_1
      + 1094 pi_d_a8_a1_proc_1 + 1094 pi_d_a8_a3_proc_1 + 1094 pi_d_a8_a4_proc_1
      + 1094 pi_d_a8_a5_proc_1 + 1094 pi_d_a8_a6_proc_1 + pi_y1_a8
      + pi_y2_a8_proc_1 >= 0
 c28: pi_p_a9_a2 - pi_p_a3_a9 + pi_p_a9_a4 - pi_p_a8_a9 - pi_d_a0_a9_proc_0
      + pi_d_a9_a0_proc_0 - pi_d_a1_a9_proc_0 + pi_d_a9_a1_proc_0
      - pi_d_a2_a9_proc_0 + pi_d_a9_a2_proc_0 - pi_d_a3_a9_proc_0
      + pi_d_a9_a3_proc_0 - pi_d_a4_a9_proc_0 + pi_d_a9_a4_proc_0
      - pi_d_a5_a9_proc_0 + pi_d_a9_a5_proc_0 - pi_d_a6_a9_proc_0
      + pi_d_a9_a6_proc_0 - pi_d_a7_a9_proc_0 + pi_d_a9_a7_proc_0
      - pi_d_a8_a9_proc_0 + pi_d_a9_a8_proc_0 >= 0
 c29: 1292 pi_p_a9_a2 + 1292 pi_p_a9_a4 + 1292 pi_d_a9_a0_proc_0
      + 1292 pi_d_a9_a1_proc_0 + 1292 pi_d_a9_a2_proc_0 + 1292 pi_d_a9_a3_proc_0
      + 1292 pi_d_a9_a4_proc_0 + 1292 pi_d_a9_a5_proc_0 + 1292 pi_d_a9_a6_proc_0
      + 1292 pi_d_a9_a7_proc_0 + 1292 pi_d_a9_a8_proc_0 + pi_y1_a9
      + pi_y2_a9_proc_0 >= 0

Bounds
       pi_y1_a0 Free
       pi_y1_a1 Free
       pi_y1_a2 Free
       pi_y1_a3 Free
       pi_y1_a4 Free
       pi_y1_a5 Free
       pi_y1_a6 Free
       pi_y1_a7 Free
       pi_y1_a8 Free
       pi_y1_a9 Free
End
